33D32945 STP File, STP Format Version 1.0

SECTION Comments
Name "edge_n14_d2_s25"
Problem "Euclidean Steiner Tree Problem"
Remark "Generated with STPGenerator. 2 dimensions."
END

SECTION Graph
Nodes 14
END

SECTION Coordinates
DD 0 0.9393561920 0.9393561920
DD 1 0.8057392150 0.8057392150
DD 2 0.0423321780 0.0423321780
DD 3 0.9785602656 0.9785602656
DD 4 0.3255712615 0.3255712615
DD 5 0.9922046186 0.9922046186
DD 6 0.9965749998 0.9965749998
DD 7 0.8456901428 0.8456901428
DD 8 0.1036064635 0.1036064635
DD 9 0.5821549858 0.5821549858
DD 10 0.7011187615 0.7011187615
DD 11 0.5075186931 0.5075186931
DD 12 0.9913254278 0.9913254278
DD 13 0.7521004219 0.7521004219
END
